(declare-fun strlen_205_64 () (_ BitVec 64))
(declare-fun args_3_8 () (_ BitVec 8))
(assert (and (not (= #x2d args_3_8))
     (= (ite (= #x00 args_3_8) #x07fffffffffeffd6 #x07fffffffffeffd7)
        (bvadd #x07fffffffffeffd6 strlen_205_64))
     (= #b00000000000000000000000000000000000000000000000000000000000000
        ((_ extract 63 2) (bvadd #x0000000000000001 strlen_205_64)))
     (bvule (bvadd #b01 ((_ extract 1 0) strlen_205_64)) #b10)))
(minimize (bvadd #x0000000000000001 strlen_205_64))
(check-sat)